letting grid be [
[ 1, 2, 3,  3, 4, 4,  4, 5, 5],
[ 1, 2, 2,  3, 3, 6,  6, 5, 5],
[ 7, 7, 8,  9, 9,10, 10,11,11],

[12,12, 8,  9,13,13, 10,14,15],
[16,17, 8, 18,18,18, 10,14,15],
[16,17, 8, 19,19,20, 10,21,21],

[22,22, 8,  8,20,20, 10,23,23],
[24,24,25, 25,26,26, 27,27,28],
[24,24,29, 29,29,26, 26,27,28]
]

letting hints be [11,13,19,17,21, 9,17,33,18,24, 8,3,10,12,10, 13,11,14,9,19, 10,7,7,17,10, 24,13,13,13]